(declare-const havoc Int)
(declare-const |a':106:133| Int)
(declare-const |p':108:130| Int)
(declare-const |s':111:131| Int)
(declare-const |havoc:1| Int)
(declare-const |q':109:129| Int)
(declare-const |r':110:128| Int)
(declare-const |b':107:132| Int)
(declare-const |K:126:127| Int)
(assert (and (not (= (ite (<= (+ (- havoc) 1) 0) 1 0) 0))
               (not (= (ite (<= (+ (- |havoc:1|) 1) 0) 1 0) 0))
               (or (not (<= (- |K:126:127|) 0))
                     (<= (+ |q':109:129| |r':110:128| |K:126:127|) 0))
               (or (not (<= (- |K:126:127|) 0)) (<= |q':109:129| 0))
               (or (not (<= (- |K:126:127|) 0)) (<= |r':110:128| 0))
               (or (not (<= (- |K:126:127|) 0)) (<= (+ (- |p':108:130|) 1) 0))
               (or (not (<= (- |K:126:127|) 0)) (<= (+ (- |s':111:131|) 1) 0))
               (or (and (= |K:126:127| 0) (= (+ (- |s':111:131|) 1) 0)
                          (= (- |r':110:128|) 0) (= (- |q':109:129|) 0)
                          (= (+ (- |p':108:130|) 1) 0)
                          (= (+ (- |b':107:132|) |havoc:1|) 0)
                          (= (+ (- |a':106:133|) havoc) 0))
                     (and (<= (+ (- |K:126:127|) 1) 0)
                            (<= (+ |s':111:131|
                                     (- (* |s':111:131| |p':108:130|))
                                     |p':108:130| |q':109:129| |r':110:128|) 0)
                            (<= (+ |q':109:129| |r':110:128| 1) 0)
                            (<= (+ (- (* |s':111:131| |p':108:130|))
                                     |p':108:130| |q':109:129|) 0)
                            (<= |q':109:129| 0)
                            (<= (+ |s':111:131|
                                     (- (* |s':111:131| |p':108:130|))
                                     |r':110:128|) 0) (<= |r':110:128| 0)
                            (<= (+ (- (* |s':111:131| |p':108:130|)) 1) 0)
                            (<= (+ (- |p':108:130|) 1) 0)
                            (<= (+ (- |s':111:131|) 1) 0)))
               (<= (- |K:126:127|) 0) (< (- |p':108:130|) 0)
               (< (- |s':111:131|) 0) (<= |r':110:128| 0) (<= |q':109:129| 0)
               (= (+ (- (* |s':111:131| |p':108:130|))
                       (* |q':109:129| |r':110:128|) 1) 0)
               (not (= (+ |a':106:133| (- (* |r':110:128| |havoc:1|))
                            (- (* |p':108:130| havoc))) 0))))
(check-sat)
